nServices=10;
nDrivers=10;
nBuses=10;
startTime=[16 184 128 48 108 88 199 104 155 77];
durationTime=[23 14 12 27 19 28 22 12 28 21];
durationDist=[28 56 54 45 41 21 30 41 27 57];
passangers=[9 9 25 25 12 16 13 10 6 3];
capacity=[17 15 10 20 18 24 16 23 12 18];
costTime=[8 7 8 8 9 10 9 9 7 6];
costDist=[2 6 6 5 2 6 2 4 6 3];
maxTime=[48 34 57 59 39 20 59 41 51 50];
costBM=[6 7 6 8 6 5 6 7 7 8];
costEM=[11 11 10 10 12 11 10 12 11 12];
BM=[18 18 13 18 10 14 15 19 14 10];
